6 5 1 14 16 12 11 4 8 2 9 0 3 15 13 7 10 
12 1 6 14 13 2 15 10 4 11 16 5 9 0 3 8 7 
8 14 10 16 0 5 12 9 13 4 7 11 2 1 6 3 15 
14 2 16 8 1 6 9 3 5 13 10 12 15 11 7 4 0 
10 1 12 7 13 9 6 15 14 11 3 0 2 8 5 16 4 
14 10 7 12 2 9 1 0 3 8 15 16 5 11 13 6 4 
5 13 1 11 15 7 3 8 9 14 2 16 0 4 6 10 12 
14 7 2 1 11 12 9 5 13 15 8 0 10 3 16 4 6 
11 16 9 1 14 15 7 13 5 12 8 6 3 4 2 10 0 
15 11 3 14 16 1 2 7 4 10 8 9 13 5 6 0 12 
